Version identifier: 12.10.0.0 | 2019-11-26 | 843d4de
CPXPARAM_Read_DataCheck                          1
CPXPARAM_RandomSeed                              201903125
CPXPARAM_TimeLimit                               7200
Parallel mode: deterministic, using up to 8 threads for concurrent optimization:
 * Starting dual Simplex on 1 thread...
 * Starting Barrier on 6 threads...
 * Starting primal Simplex on 1 thread...
Tried aggregator 1 time.
No LP presolve or aggregator reductions.
Presolve time = 0.00 sec. (5.86 ticks)

Iteration log . . .
Iteration:     1   Dual objective     =          1207.000000
Perturbation started.
Iteration:   101   Dual objective     =          1207.000000
Iteration:   238   Dual objective     =          1207.028655
Iteration:   389   Dual objective     =          1207.063800
Iteration:   614   Dual objective     =          1207.063805
Iteration:   841   Dual objective     =          1207.063809
Iteration:  1067   Dual objective     =          1207.063812
Iteration:  1295   Dual objective     =          1207.063815
Iteration:  1516   Dual objective     =          1207.063817
Iteration:  1740   Dual objective     =          1207.063818
Iteration:  1966   Dual objective     =          1207.063819
Iteration:  2205   Dual objective     =          1207.063820
Iteration:  2438   Dual objective     =          1207.063821
Removing perturbation.

Dual simplex solved model.

